Instance name : SB_bar-n100-6
Authors : 
Date : 
Reference 
Solution
Route 1 : 4 29 54 31 81 40 48 34 30 79 84 19 44 90 98 69 23 73 45 94 80 95 39 27 77 36 33 83 89 86 
Route 2 : 12 43 93 42 62 21 71 6 28 18 56 68 5 17 2 67 78 49 52 92 55 99 
Route 3 : 20 22 47 97 72 16 70 8 66 35 14 85 64 10 58 60 15 46 65 96 
Route 4 : 32 38 25 82 88 41 91 37 75 1 87 51 7 57 9 13 26 63 76 11 3 59 61 24 50 53 100 74 
